Version identifier: 22.1.1.0 | 2022-11-28 | 9160aff4d
CPXPARAM_ClockType                               1
CPXPARAM_Read_DataCheck                          1
CPXPARAM_Threads                                 1
CPXPARAM_TimeLimit                               7200
CPXPARAM_MIP_Tolerances_AbsMIPGap                0
CPXPARAM_MIP_Tolerances_MIPGap                   0
CPXPARAM_MIP_Tolerances_Integrality              0
Tried aggregator 5 times.
MIP Presolve eliminated 56462 rows and 33918 columns.
MIP Presolve modified 9698 coefficients.
Aggregator did 13893 substitutions.
Reduced MIP has 59280 rows, 26817 columns, and 236366 nonzeros.
Reduced MIP has 26817 binaries, 0 generals, 0 SOSs, and 0 indicators.
Presolve time = 0.71 sec. (346.47 ticks)
Found incumbent of value -111294.000000 after 1.09 sec. (541.02 ticks)
Probing time = 0.04 sec. (9.86 ticks)
Tried aggregator 1 time.
Detecting symmetries...
Reduced MIP has 59280 rows, 26817 columns, and 236366 nonzeros.
Reduced MIP has 26817 binaries, 0 generals, 0 SOSs, and 0 indicators.
Presolve time = 0.34 sec. (136.46 ticks)
Probing time = 0.03 sec. (9.69 ticks)
Clique table members: 16803.
MIP emphasis: balance optimality and feasibility.
MIP search method: dynamic search.
Parallel mode: none, using 1 thread.
Root relaxation solution time = 43.76 sec. (10159.96 ticks)

        Nodes                                         Cuts/
   Node  Left     Objective  IInf  Best Integer    Best Bound    ItCnt     Gap

*     0+    0                      -111294.0000    60190.0000           154.08%
      0     0    29238.3333  8907  -111294.0000    29238.3333    32719  126.27%
      0     0    23474.1634  6572  -111294.0000    Cuts: 3654    58843  121.09%
      0     0    23022.1190  5972  -111294.0000    Cuts: 2604    89722  120.69%
      0     0    22978.7667  6259  -111294.0000    Cuts: 2124   117511  120.65%
*     0+    0                         6262.0000    22978.7667           266.96%
      0     0        cutoff           6262.0000    22978.7667   117511  266.96%
      0     0    22973.3208  6151     6262.0000    Cuts: 1650   139733  266.87%
      0     0    22968.7089  6432     6262.0000    Cuts: 1535   161760  266.80%
      0     0    22964.5770  6585     6262.0000    Cuts: 1544   176760  266.73%
*     0+    0                         6967.0000    22964.5770           229.62%
*     0+    0                         8310.0000    22964.5770           176.35%
*     0+    0                        10688.0000    22964.5770           114.86%
      0     0        cutoff          10688.0000    22964.5770   176760  114.86%
      0     0    22961.2939  6543    10688.0000    Cuts: 1634   195550  114.83%
      0     0    22956.2314  6514    10688.0000    Cuts: 1800   211833  114.79%
      0     0    22951.1505  6512    10688.0000    Cuts: 1715   237124  114.74%
*     0+    0                        12075.0000    22951.1505            90.07%
*     0+    0                        12911.0000    22951.1505            77.76%
*     0+    0                        14007.0000    22951.1505            63.85%
      0     0        cutoff          14007.0000    22951.1505   237124   63.85%
      0     0    22946.0729  6419    14007.0000    Cuts: 1586   260907   63.82%
      0     0    22943.7715  6638    14007.0000    Cuts: 1294   282624   63.80%
      0     0    22940.7926  6605    14007.0000    Cuts: 1495   310238   63.78%
*     0+    0                        14745.0000    22940.7926            55.58%
*     0+    0                        15328.0000    22940.7926            49.67%
*     0+    0                        15392.0000    22940.7926            49.04%
*     0+    0                        15622.0000    22940.7926            46.85%
      0     0        cutoff          15622.0000    22940.7926   310238   46.85%
      0     0    22937.8479  6613    15622.0000    Cuts: 1342   338111   46.83%
Heuristic still looking.
Heuristic still looking.
*     0+    0                        15886.0000    22937.8479            44.39%
*     0+    0                        16210.0000    22937.8479            41.50%
*     0+    0                        16535.0000    22937.8479            38.72%
      0     0        cutoff          16535.0000    22937.8479   338111   38.72%
      0     2    22937.8479  6613    16535.0000    22937.8453   338111   38.72%
Elapsed time = 2415.43 sec. (711503.01 ticks, tree = 0.01 MB, solutions = 15)
      1     3    22937.8377  6598    16535.0000    22937.8377   388628   38.72%
      2     4    22937.7727  6469    16535.0000    22937.8377   414779   38.72%
      3     5    22937.6564  6458    16535.0000    22937.8377   436518   38.72%
      4     6    22937.7272  6377    16535.0000    22937.8377   445311   38.72%
      5     7    22937.6169  6340    16535.0000    22937.8377   483592   38.72%
      6     8    22937.5202  6493    16535.0000    22937.8377   555078   38.72%
      7     9    22937.5390  6284    16535.0000    22937.8377   560991   38.72%
      8    10    22937.3124  6269    16535.0000    22937.8377   568134   38.72%
      9    11    22937.1955  6249    16535.0000    22937.8377   577381   38.72%
     10    12    22936.6742  6189    16535.0000    22937.8377   588913   38.72%
Elapsed time = 3666.30 sec. (1012199.46 ticks, tree = 0.50 MB, solutions = 15)
     11    13    22936.5138  6202    16535.0000    22937.8377   592608   38.72%
     12    14    22936.5077  6169    16535.0000    22937.8377   602441   38.72%
     13    15    22936.5077  6203    16535.0000    22937.8377   604851   38.72%
     14    16    22936.4643  6167    16535.0000    22937.8377   609189   38.72%
     15    17    22936.3157  6110    16535.0000    22937.8377   611267   38.72%
     16    18    22936.3157  6101    16535.0000    22937.8377   613666   38.72%
     17    19    22936.3157  6122    16535.0000    22937.8377   616672   38.72%
     18    20    22936.2571  6071    16535.0000    22937.8377   628433   38.72%
     19    21    22936.2297  6048    16535.0000    22937.8377   630455   38.72%
     20    22    22936.1497  6030    16535.0000    22937.8377   635070   38.72%
Elapsed time = 4041.64 sec. (1119280.92 ticks, tree = 0.99 MB, solutions = 15)
     21    23    22936.1464  6053    16535.0000    22937.8377   637221   38.72%
     22    24    22936.0859  6050    16535.0000    22937.8377   642301   38.72%
     23    25    22936.0585  6025    16535.0000    22937.8377   649827   38.72%
     24    26    22935.6345  6026    16535.0000    22937.8377   653928   38.72%
     25    27    22935.5491  6002    16535.0000    22937.8377   656407   38.72%
     26    28    22935.5466  5990    16535.0000    22937.8377   668647   38.72%
     27    29    22935.5466  6027    16535.0000    22937.8377   673729   38.72%
     28    30    22935.5399  6040    16535.0000    22937.8377   674985   38.72%
     29    31    22935.5466  6208    16535.0000    22937.8377   687182   38.72%
     30    32    22935.5172  6200    16535.0000    22937.8377   694533   38.72%
Elapsed time = 4271.73 sec. (1190587.94 ticks, tree = 1.46 MB, solutions = 15)
     31    33    22934.2774  5982    16535.0000    22937.8377   704131   38.72%
     32    34    22934.2592  5977    16535.0000    22937.8377   709500   38.72%
     33    35    22934.2774  5951    16535.0000    22937.8377   712658   38.72%
     34    36    22934.2592  5942    16535.0000    22937.8377   718333   38.72%
     35    37    22934.2774  6014    16535.0000    22937.8377   721668   38.72%
     36    38    22934.2774  6220    16535.0000    22937.8377   733587   38.72%
     37    39    22934.2592  5939    16535.0000    22937.8377   751073   38.72%
     38    40    22933.8940  5989    16535.0000    22937.8377   755532   38.72%
     39    41    22926.5162  5961    16535.0000    22937.8377   765277   38.72%
     40    42    22933.8926  5978    16535.0000    22937.8377   784806   38.72%
Elapsed time = 4589.88 sec. (1287434.85 ticks, tree = 2.60 MB, solutions = 15)
     41    43    22933.7292  5966    16535.0000    22937.8377   788304   38.72%
     42    44    22933.3069  6153    16535.0000    22937.8377   799976   38.72%
     43    45    22931.6372  6375    16535.0000    22937.8377   870451   38.72%
     45    47    22932.9133  6135    16535.0000    22937.8377   893620   38.72%
     46    48    22930.7794  6312    16535.0000    22937.8377   974880   38.72%
     47    49    22932.9133  6107    16535.0000    22937.8377   979818   38.72%
     48    50    22932.9034  6085    16535.0000    22937.8377   988545   38.72%
     49    51    22931.4962  6202    16535.0000    22937.8377  1015507   38.72%
     50    52    22930.1191  6143    16535.0000    22937.8377  1069566   38.72%
     51    53    22929.0508  6297    16535.0000    22937.8377  1126243   38.72%
Elapsed time = 6078.76 sec. (1774498.20 ticks, tree = 3.23 MB, solutions = 15)
     52    54    22929.1317  6290    16535.0000    22937.8377  1173067   38.72%
     53    55    22929.1317  6298    16535.0000    22937.8377  1195014   38.72%
     54    56    22929.1317  6258    16535.0000    22937.8377  1218149   38.72%
     55    57    22928.8253  6503    16535.0000    22937.8377  1268001   38.72%
     56    58    22929.1317  6294    16535.0000    22937.8377  1290307   38.72%
     59    61    22928.3551  6419    16535.0000    22937.8377  1341611   38.72%

GUB cover cuts applied:  2
Clique cuts applied:  1176
Implied bound cuts applied:  131
Flow cuts applied:  1
Mixed integer rounding cuts applied:  1
Zero-half cuts applied:  3546
Lift and project cuts applied:  20
Gomory fractional cuts applied:  55

Root node processing (before b&c):
  Real time             = 2415.40 sec. (711487.35 ticks)
Sequential b&c:
  Real time             = 4784.67 sec. (1382811.84 ticks)
                          ------------
Total (root+branch&cut) = 7200.07 sec. (2094299.20 ticks)
Solution is feasible.

---------------------
@@@ MIP_time_limit_feasible
>>> Benchmark mc2024_track1_014.cnf k 10 OPT 16535 TimeCost 7366.182529449463 TimeSolve 7229.9713978767395 TimeRead 0.010489225387573242 TimeTrans 136.20064234733582
